1000 1913
1 2 3 4 5 6 7 8 9 10 11 12 13 14 15 16 17 18 19 20 21 22 23 24 25 26 27 28 29 30 31 32 33 34 35 36 37 38 39 40 41 42 43 44 45 46 47 48 49 50 51 52 53 54 55 56 57 58 59 60 61 62 63
0 22 64 65 66 67 68 69 70 71 72 73 74 75 76 77 78 79 80 81 82 83 84 85 86 87 88 89 90 91 92 93 94 95 96 97 98 99 100 101 102 103 104 105 106 107 108 109 110 111 112 113 114 115 116 117 118 119 120 121 122 123 124 125 126 127 128 129 130 131 132 133 134 135 136 137 138 139 140 141 142 143 144 145 146 147 148 149 150 151 152 153 154 155 156 157 158 159 160 161
0 93 118 133 135 159 162 163 164 165 166 167 168 169 170 171 172 173 174 175 176 177 178 179 180 181 182 183 184 185 186 187 188 189 190 191 192 193 194 195 196 197 198 199 200 201 202 203 204 205 206 207 208 209 210 211 212 213 214 215 216 217 218 219 220 221 222 223 224 225 226 227 228 229 230 231 232 233 234 235 236 237 238 239 240 241 242 243 244 245 246 247 248 249
0 67 96 124 155 159 250 251 252 253 254 255 256 257 258 259 260 261 262 263 264 265 266 267 268 269 270 271 272 273 274 275 276 277 278 279 280 281 282 283 284 285 286 287 288 289 290 291 292 293 294 295 296 297 298 299 300 301 302 303 304 305 306 307 308 309 310 311 312 313 314 315 316 317 318 319 320 321 322 323 324 325 326 327 328 329 330 331 332 333
0 334 335 336 337 338 339 340 341 342 343 344 345 346 347 348 349 350 351 352 353 354 355 356 357 358 359 360 361 362 363 364 365 366 367
0 199 285 368 369 370 371 372 373 374 375 376 377 378 379 380 381 382 383 384 385 386 387 388 389 390 391 392 393 394 395 396 397 398 399 400 401 402 403 404 405 406 407 408 409 410 411 412 413 414 415 416 417 418 419 420 421 422 423 424 425 426 427
0 428 429 430 431 432 433 434 435 436 437 438 439 440 441 442 443 444 445 446 447 448 449 450 451 452 453 454 455 456 457 458 459 460 461 462 463 464 465 466 467 468 469 470 471 472 473 474 475 476 477 478 479 480 481 482 483 484 485 486 487 488 489 490 491 492 493 494 495 496 497 498 499 500 501 502 503 504 505 506 507 508 509 510 511 512 513
0 147 514 515 516 517 518 519 520 521 522 523 524 525 526 527 528
0 293 529 530 531 532 533 534 535 536 537 538 539 540 541 542 543 544 545 546 547 548 549 550 551 552 553 554 555 556 557 558 559 560 561 562 563 564 565 566 567 568 569 570
0 230 263 287 323 390 407 414 571 572 573 574 575 576 577 578 579 580 581 582 583 584 585 586 587 588 589 590 591 592 593 594 595 596 597 598 599 600 601 602 603 604 605 606 607 608 609 610 611 612 613 614 615 616 617 618 619 620 621 622 623 624 625 626 627 628 629 630 631 632 633 634 635 636 637 638 639 640 641 642 643 644 645 646 647 648 649 650 651 652 653 654 655 656 657 658 659 660 661 662 663 664 665 666 667
0 224 428 516 525 567 668 669 670 671 672 673 674 675 676 677 678 679 680 681 682 683 684 685 686 687 688 689 690 691 692 693 694 695 696 697 698 699 700 701 702 703 704 705 706 707 708 709 710 711 712 713 714 715 716 717 718 719 720 721 722 723 724 725 726 727 728 729 730 731 732 733 734 735 736 737 738 739 740 741 742 743 744 745 746 747 748 749 750 751 752 753 754 755 756 757 758 759 760 761 762 763 764 765 766 767 768 769 770 771 772 773 774 775 776 777 778 779 780 781 782 783 784 785 786 787 788 789 790 791 792 793 794 795 796 797 798 799 800 801 802 803 804 805 806
0 807 808 809 810 811 812 813 814 815 816 817 818 819 820 821 822 823 824 825 826 827 828 829 830 831 832 833 834 835 836 837 838 839 840 841 842 843 844 845 846 847 848 849 850 851 852 853 854 855 856 857 858 859 860 861 862 863 864 865 866 867 868 869 870 871 872 873 874 875 876 877 878 879 880 881 882 883 884 885 886 887 888 889 890 891 892 893 894 895 896 897 898
0 272 582 899 900 901 902 903 904 905 906 907 908 909 910 911 912 913 914 915 916 917 918 919 920 921 922 923 924 925 926 927 928 929 930 931 932 933 934
0 935 936 937 938 939 940 941 942 943 944 945 946 947 948 949 950 951 952 953 954 955 956 957 958 959 960
0 961 962 963 964 965 966 967 968 969 970 971 972 973 974 975 976 977 978 979 980 981 982 983 984 985 986 987 988 989 990 991 992 993 994 995 996 997 998 999
0 133 225 273 911 937
0 203 231
0 308
0
0 418 637 672 957
0
0 131 230 383 394
0 1 64 73 87 88 98 108 131 133 136 147 151 154 159 165 178 194 230 289 323 519
0 484 770 993
0
0 112
0 524
0 73 108 146 189 457
0 87 93 114 133 136 149 161 165 169 215 224 230 331 378 764 916
0 166 181 290 727
0 38
0 867
0 166 274 311 452 463 475 476 498 539 550 555 678
0 112 114 139 146 155 169 224 230 300 330 406 720 919 957
0 112 114 146 155 295 298 330 331
0
0 654
0 126 582
0 30
0 484
0
0
0 171
0 262 271 284 285 297 311 385 423 705
0
0 567
0
0
0
0
0 114 147 189 264 442 554 567
0 96 714 721 731
0
0 271
0
0
0
0 758 815 853
0 264 274 372 377 383 424 853
0 81 90 96 126 132 133 159 165 189 293 295 534 662 741
0
0 147 378 921
0
0 612
1 22 73 90 96 110 137 149 294 774
1 87 141 149
1 74 76 139
1 3 73 87 90
1
1 76 82 86 89 90 95 109 149 158
1 120 121 141 149
1 87 120
1 89 150
1 22 27 64 67 76 81 84 87 88 90 91 93 96 98 108 110 115 117 120 121 123 124 130 137 143 147 149 151 152 154 156 158 160 200 293 294 317 539 594 774 875
1 66 87 108 130 137 149 154 290
1 76 111 149
1 66 69 73 75 78 84 87 88 90 96 108 111 112 118 124 128 130 132 137 140 143 144 145 149 151 152 154 155 156 159 178 183 234 293 294 774 928 930
1 115
1 76 234
1 82 131 160
1 87
1 59 73 87 158
1 69 79 84 95 96 101 124 140 149 160
1 95
1 73 76 82 87 91 109 145 149 160 200 294
1 88 93 120 791
1 69 91 93 100 108 131 926
1 22 28 65 67 71 73 74 76 80 81 84 88 91 93 98 108 109 111 115 117 121 124 126 130 131 141 147 154 160 165 178 373 566 652 774
1 22 73 76 85 87 91 93 95 97 117 120 160 200 317
1 69 72 96 98 106 117 118 124 126 133 142 146 160 210 263 331
1 59 64 67 69 73 76 91 92 96 98 100 104 109 110 111 115 131 132 137 149 221 245 294
1 73 84 86 87 88 90 108 124 137 149 755
1 90 124 294
1 2 28 73 85 86 87 88 100 112 118 137 149 154 155 163 189 217 232 234 248 294 755
1 234
1 69 82 83 88 96 108 117 124 137 140 294 295 858
1 3 51 59 64 73 76 82 89 90 95 138 145 149 150
1 88 154
1 22 73 87 89 90 183 217 652 895
1
1 86 90 93
1 82
1 463
1
1 90 114 137
1 115
1 89
1 154
1 22 27 73 74 76 86 87 91 95 121 145 200 287
1 69 84 87 90 115 127 128 130 137 145 149 154 189 293 294 405 410
1 64 73 90 121 123 149
1 75 76 87 90 293
1 25 33 34 76 93 121 190 317 895
1
1 28 33 34 50 104 123 131
1 73 77 87 90 105 109 117 124 148 154 382
1
1 73 87 88 89 95 115 141 153 158
1 2 76 89 93 149 163 175 176 179 180 190 217 234 245 249
1 131
1 70 71 73 85 88 154
1 70 73 87 108 110 112 130 137 145
1
1 73 110 114 137 154 156 200 226
1 3 73 76 82 87 89 91 92 95 115 131 158 234 306
1
1 37 59 87 89
1 109
1 76 109
1
1 73 74 76 87 109 121
1 21 22 79 86 87 90 114 119 124 146 154 200
1 59 76 90
1 2 15 22 28 59 89 163 205 234
1
1 2 163
1 22 28 163
1 64 73 74 76 90 91 93 95 104 109 121 123
1 96 519
1 33 66
1 76 82 95 293 743
1 65 70 87 117
1 89 189
1 73 76
1 76
1 76 84 96 108 109 121 149 155 160 239
1 27 33 34 89 131 158
1 7 22 50 61 73 87 149
1 115 289
1 28 64 65 69 70 73 74 75 76 82 84 90 91 93 96 109 110 118 145 147 152 160 774
1 72 96
1 22 73 76
1 73 76 149 200
1 117
1 22 73 74 76 87 93 97 107 109 115 120 123 131 160 317
1 3 33 34 76 93 145 162
1 73 76 123 200
1
1 69 73 81 117 124 146 317
1 2 3 22 59 76 229
1 73 79 82 84 87 88 89 145 149 154
1 28
2 155 286 546
2 93 118 133 135 136 221 228 230 263 317 331
2 165
2 22 28 59 87 164 214 229 234
2 29 32
2 232 234
2 217
2 28 33
2
2 42
2
2 234
2 183 234
2 118 198 231 247
2 118 178
2
2 22 76 87 176 180
2 118 248
2 118 178 182 215 240
2 29 249
2 180
2 76 98 174 210 292 293
2
2
2
2
2
2 27 50 59 93 109 142
2 112 118 269 476 687 911 928 929 949 957
2 219
2
2
2 22
2 234
2
2 928
2 175 203
2 5
2 73 84 88 108 123 131 152 156 290
2 234
2 205
2 16 198 672
2
2 133 202 928
2
2
2
2 911
2 89 183 234
2
2
2
2 165 229 234
2 28 180 672
2
2 93 98 118 168
2 219
2 191 218 249
2 595
2 90 163
2
2
2 10 28 33
2 15
2 123 585
2
2 163
2 159 165 214
2 9 21 22 28 33 163 234
2 16 175
2 93 167
2
2 76 78 93 94 118 124 133 165 167 173 174 195 201 210 214 230 263 373 602 764 930
2
2
2
2
2 145 335 743
2 180
2
2
2
2
2 90 118 924
2
2 175
2 93 179
2 118 181 219
3
3
3
3
3
3
3
3
3
3
3
3
3 43 577
3 9 89 163 234
3 50 58 984
3
3
3
3
3 190
3
3 43 53
3 12
3 15
3 32 58
3
3
3
3
3
3
3
3
3
3 43
3 5 43
3 162 743
3 9 108
3 938
3 22 148
3 29 74 200
3
3 183 879
3 8 59 73 76 109 111 140 183
3 64 73 76 84 90 92 93 95 109
3 34 59 95
3
3 43
3 34 386
3
3 33
3
3
3
3
3 314
3 124
3
3 17
3
3
3 32 43
3
3
3 305 400
3
3 488
3 73 88 112 154 158 163 774
3
3
3
3
3
3 9 22
3
3
3
3
3
3
3 33 34
3 28 34 89 163
3
3
4
4 239
4
4
4
4 355
4 354
4
4
4
4
4 351
4 672
4
4 727
4
4
4 345
4 357 359 365
4
4 340
4 339
4
4 352 365 519
4
4 352
4
4
4
4
4
4 352 357
4
4
5
5 663
5
5
5 58
5 87 234 743
5 386
5
5
5 58
5 28 61
5
5
5
5 115
5 21 58
5
5 43
5 298 374 404 414
5
5
5
5 9
5
5
5
5 21
5 416
5
5
5 426
5
5 314
5
5
5
5 386
5 109
5 33
5 9 426 964
5 623
5
5 109
5 422
5
5
5 9 386 663
5
5 395
5
5 19
5
5
5
5 411
5 43
5 58
5
5 398 407
5
6 10
6 437 439 440 443 444 478 479 488 489 491 497 500
6
6
6
6
6 437 453 508
6
6
6 429 434 440 443 444 450 451 456 478 479 500
6
6 429
6 429 437 443 450 478 494 500 501
6 489
6 50 508
6 429 437 440 444 478 479 480 494 500
6 429 437 443 450 478 494 500 501
6 458 490
6
6
6
6
6 437 440 444 479 480 488 494 501
6 437 478 502
6 32
6 434
6
6
6 437 754
6 27
6 445 469 471 489 490
6 491 672
6
6
6
6 32 102
6 491
6
6 479 500
6
6
6 458 490
6
6 458 490
6
6 491
6
6 32
6 32 190
6
6 429 437 440 443 444 451 479 494 500 501
6 429 437 443 450 466 478 494 500 501
6 443 450 494 500 501
6
6
6 490 503 510
6 23 39 491
6 766
6
6
6 316 429 450 494 501 506
6 429 441 458 491
6 445 458 469 471 483 491 503 510
6 429 459 464 473 484 489 490 503 508
6
6
6 440 443 444 450 478 479 480 488 500 501
6
6
6 429
6 32
6
6 429 437 440 443 444 466 478 479 480 494 501
6 440 444 450 478 479 480 488 494 500
6 451
6 483 490 491 507 510
6
6 743
6 488
6 503 510
6 434 442 491
6
6 483 490 503 507
6
6
6
7
7
7 10 743
7
7
7 22 138 357 743
7 526
7
7
7
7 26
7 10
7 520
7
7
8
8
8
8
8
8 59
8
8
8
8 552
8 32 73
8
8
8
8
8
8
8 162
8
8
8
8 32
8
8 538
8
8 50
8 32
8
8
8
8
8
8
8
8
8
8
8 87
8 10 45 50 743
8
8
8
9
9 665
9 577 597 598 617
9
9
9
9 262 573 597 598 599 614 665
9
9
9
9
9 12 37
9
9
9 226
9 604 666
9
9
9
9
9
9
9
9 73 658
9 220
9
9 573 577 598 599
9 573 577 597 599 623 665
9 577 597 598 617 623
9
9
9 234
9
9 586
9 938
9
9
9
9
9
9 622 646 974
9 63 665
9 645 646 665
9 577
9
9 646
9 573 599
9
9
9
9
9 611
9 408 598 599 665
9
9
9
9
9
9 646
9
9
9
9
9
9
9
9 19
9
9
9
9
9
9
9
9 613 646
9 611 613 616 629 645 652
9 810
9
9
9
9
9 87 98 646
9
9 36
9
9
9
9 594
9
9
9
9 59
9 369 414
9
9 572 577 598 612 613 623
9 586
9
10 743
10 713 736
10
10
10 19 203 215 346 459 960 984 986
10 768
10 785
10 743
10
10
10 32
10 743
10
10 743
10 704
10 693 739 740 775 776 794 799 804
10
10
10 749
10 190 743
10
10
10
10
10
10 683 739 792
10
10
10
10 743
10
10
10
10
10
10
10 682
10 43
10
10
10
10
10 734 736 748 778 788
10
10
10 669 748
10 51 790
10
10 850
10 769
10
10 743
10 33
10 51
10 751
10
10
10
10
10 29 348
10
10
10 734 736 746 748 759 769 778 783 788 797
10 51
10
10
10 710 730
10
10 669 710 730 738 748 752 759 771 778
10
10 736
10 683 693 749
10 683 775
10 59
10
10 140 239 286 373 505 516 519 567 668 675 679 681 687 697 719 745 768 773 774 779 780 784 789
10
10 743
10 730
10
10 710 713 730 736 771 778
10 686 739
10
10 722
10 736 771 778 788
10
10 456
10 91 93
10
10 792
10 57 798
10 730 736 771 778
10
10
10
10
10 28 234
10
10 485
10
10 673 743 769
10 717 730 768
10 23 778
10 736 748 752 759 788
10 775
10 743
10 64 73 76 87 149 317 743
10 683 740 772 799
10 683 799
10
10 710 730 736 748 752 759 770 788
10 743
10 743
10
10
10 730
10 743
10 674
10
10
10 710 730 752 771 778
10 743
10 714
10 85
10 693 757 794
10
10 683 792
10
10
10 730
10 758
10 683 775 776
10
10
10
10
10 683
10
10
11 870
11
11
11 647 836
11 864
11
11
11 818 830 870
11 57
11
11
11 814 843 863
11
11
11
11 870
11 825 829 838 846 850 852 880 883 890
11
11 823 850 852
11
11
11
11 823 850 852 870
11 814 843 868
11 884
11 894
11
11
11
11 810
11
11 823 850 852 870
11
11
11
11
11 818 830 870
11
11
11 823
11
11
11 863
11 716 823 825 829 838 852 867 870 872 880 883 889 890
11
11 823 825 829 838 850 863 870 880 883 890
11 57 58
11 870
11
11
11
11 95
11
11
11
11
11 818 849 852
11 811
11
11 897
11 31 850
11 830
11
11 807 814 822 829 838 843 850 852 854 871 883
11 870
11 850
11
11
11 73
11
11
11
11 292 917
11 823 850 852
11
11
11 823 850 852 870
11 831
11
11
11
11
11 850
11 823 850 852
11
11
11
11 832
11 98 112
11
11 866
11
12
12
12
12
12
12
12
12
12
12
12
12 912
12 15 190 209
12 910 933
12
12
12
12 28
12 879
12
12 33
12
12 61
12
12
12 245
12
12 86
12
12 76 190 197 205
12 190
12 76 234
12
12
12 912
12
13
13
13 15
13 288 605
13 943
13
13
13
13 939
13
13
13
13
13
13 190
13
13
13
13
13
13
13
13 19 33 190
13
13
13 672
14 999
14
14
14 407 973 986
14
14 977
14
14
14
14
14
14 984
14 964
14 611 982
14
14
14 966 984
14
14
14
14
14 974 983 995
14 982
14 264 672 972 977 990 991
14
14 672 964 987 991 997
14 986
14
14
14 984
14 984 986
14
14 23
14
14 982
14
14 986
14
14 961
